%nprocshared=20
%mem=5GB
#p m062x/cc-pVTZ irc=(calcall) 

Gaussian input prepared by ASE

0 2
O                -0.5396740000       -1.1116380000       -0.4016480000
O                 1.8872580000       -0.3761140000        0.3824110000
O                 1.9030950000        0.7727460000       -0.2439720000
C                -1.4987490000       -0.3707910000        0.3614750000
C                -1.5199540000        1.0927740000       -0.0216930000
H                -2.4825050000       -0.8282470000        0.2394590000
H                -1.1979860000       -0.4972630000        1.4004320000
H                -1.8329620000        1.2141910000       -1.0606440000
H                -2.2256320000        1.6382860000        0.6039160000
H                -0.6422100000       -0.8877390000       -1.3313490000
H                 1.0173570000       -0.7810380000        0.1231210000
H                -0.5292720000        1.5299570000        0.0920420000



