%nprocshared=20
%mem=5GB
#p m062x/cc-pVTZ opt=(calcfc,maxcycles=900) freq IOP(7/33=1,2/16=3) scf=(maxcycle=900) 

Gaussian input prepared by ASE

0 2
O                -1.3597917430       -0.0205852377        0.8939490932
C                -0.3525301042       -0.5416979737        0.0653168964
C                 0.0602830556       -1.9465688825        0.4831484232
H                -0.6906820101       -0.5649925405       -0.9836614169
H                 0.5246040795        0.1400588581        0.0743322214
H                -0.5220581140       -2.4606676706        1.2531407401
H                 0.5430721598       -2.5788604512       -0.2666150815
H                -1.3854457145        0.9487366872        0.7279028053



