%nprocshared=20
%mem=5GB
#p m062x/cc-pVTZ opt=(ts,calcfc,noeigentest,maxcycles=900) freq scf=(maxcycle=900) IOP(7/33=1,2/16=3) 

Gaussian input prepared by ASE

0 2
O                -2.1818190000       -0.7964940000        0.1932220000
O                 2.4871270000        0.0735380000        0.3156050000
O                 1.5976870000       -0.4654410000       -0.6076940000
C                -1.6824490000        0.4201380000       -0.3210840000
C                -0.3287500000        0.7751560000        0.2130990000
H                -1.6446620000        0.3011370000       -1.4043700000
H                -2.3816220000        1.2458500000       -0.1213000000
H                 0.5448560000       -0.2004860000       -0.1848530000
H                -0.2154300000        0.7154450000        1.2956510000
H                 0.1306370000        1.6624400000       -0.2098260000
H                -2.2441630000       -0.7244050000        1.1490690000
H                 2.6536240000       -0.6645730000        0.9144750000



