%nprocshared=20
%mem=5GB
#p m062x/cc-pVTZ opt=(ts,calcfc,noeigentest,maxcycles=900) freq scf=(maxcycle=900) IOP(7/33=1,2/16=3) 

Gaussian input prepared by ASE

0 2
O                -1.9981020000       -0.6097560000       -0.4955050000
O                 1.8669470000       -0.6386470000        0.3564550000
O                 1.6586360000        0.1748370000       -0.7494060000
C                -1.2106590000       -0.1306000000        0.5728980000
C                -0.3784050000        1.0592270000        0.2028110000
H                -1.8370680000        0.1193980000        1.4425030000
H                -0.5626650000       -0.9539860000        0.8740210000
H                 0.5629560000        0.5522380000       -0.6515970000
H                -0.8875430000        1.8280230000       -0.3761230000
H                 0.2356440000        1.4621830000        1.0019930000
H                -2.5950920000        0.0888690000       -0.7750570000
H                 2.3983020000       -0.0799590000        0.9376560000



