%nprocshared=20
%mem=5GB
#p m062x/cc-pVTZ Opt=(ModRedun,Loose,maxcycles=900) Int(Grid=SG1) scf=(maxcycle=900) 

Gaussian input prepared by ASE

0 2
O                -2.6955583118        0.2713822459        0.8400887587
O                -0.5015190696        4.9433806444        1.6819154527
O                -1.5506105785        4.2213403768        1.3502693340
C                -2.0010446053        1.2200389198        0.0778508388
C                -0.9003278552        1.9287115535        0.8553663657
H                -1.5575110237        0.7351478830       -0.8209330197
H                -2.7444148652        1.9507698632       -0.3048378141
H                -1.1018793362        3.2822200847        0.8266828091
H                 0.1146008937        1.7553698674        0.4388297712
H                -0.9004397204        1.6621993401        1.9333171426
H                -2.1568741694        0.1104470955        1.6584564524
H                -0.3685885804        4.7335694300        2.6404997574

5 8 F
8 3 F
5 8 3 F

