%nprocshared=20
%mem=5GB
#p m062x/cc-pVTZ opt=(ts,calcfc,noeigentest,maxcycles=900) freq scf=(maxcycle=900) IOP(7/33=1,2/16=3) 

Gaussian input prepared by ASE

0 2
O                -2.0004200000       -0.6088560000       -0.4951860000
O                 1.8709280000       -0.6370080000        0.3574420000
O                 1.6592610000        0.1732160000       -0.7500920000
C                -1.2128250000       -0.1297970000        0.5730800000
C                -0.3779050000        1.0578530000        0.2016290000
H                -1.8392120000        0.1224060000        1.4418720000
H                -0.5667640000       -0.9541190000        0.8758630000
H                 0.5623560000        0.5468640000       -0.6516070000
H                -0.8844150000        1.8264780000       -0.3796640000
H                 0.2360910000        1.4609330000        1.0007670000
H                -2.6039710000        0.0862960000       -0.7691880000
H                 2.4021530000       -0.0760080000        0.9363970000



