%nprocshared=20
%mem=5GB
#p m062x/cc-pVTZ opt=(ts,calcfc,noeigentest,maxcycles=900) freq scf=(maxcycle=900) IOP(7/33=1,2/16=3) 

Gaussian input prepared by ASE

0 2
O                 2.3995960000       -0.4734490000        0.1271780000
O                -2.1521500000       -0.5521940000        0.4263720000
O                -1.7582890000        0.3520690000       -0.5500720000
C                 1.0935610000       -0.2183810000       -0.3682470000
C                 0.4251760000        0.8991910000        0.3757150000
H                 1.1087310000       -0.0122430000       -1.4417440000
H                 0.5443010000       -1.1491690000       -0.2234880000
H                -0.8688850000        0.9309000000       -0.0690680000
H                 0.7945120000        1.8994170000        0.1541210000
H                 0.2656540000        0.7206160000        1.4363720000
H                 2.9417960000        0.3056440000       -0.0200170000
H                -1.8117910000       -1.3914310000        0.0911940000



