%nprocshared=20
%mem=5GB
#p m062x/cc-pVTZ Opt=(CalcFC,ModRedun) 

Gaussian input prepared by ASE

0 1
O                -0.5405945561        0.4671531786        0.0511485883
O                 0.5723325876       -0.4201750140        0.0170211978
H                -1.2762248649       -0.1503959528       -0.0233384384
H                 0.9166095197       -0.3250127002        0.9117059335

B 1 3
B 1 2
B 2 4
D 3 1 2 4 S 36 10.0

