%nprocshared=20
%mem=5GB
#p m062x/cc-pVTZ opt=(calcfc,maxcycles=900) freq IOP(7/33=1,2/16=3) scf=(maxcycle=900) 

Gaussian input prepared by ASE

0 1
O                 1.5257936899        0.4408149800       -0.2053622900
C                 0.5363562584       -0.4579307049        0.1240413724
C                 1.0594825986       -1.8829911220        0.0985192265
H                 0.1294858460       -0.2304326500        1.1413551305
H                -0.3199062656       -0.3641951243       -0.5803584437
H                 1.6667251822       -2.0971920892        0.9979927449
H                 0.2344010936       -2.6037462611        0.0647523847
H                 1.7054025067       -2.0484411035       -0.7986723729
H                 1.1387127023        1.3431640869       -0.1781191569



